NAME          
ROWS
 N  OBJ
 L  c1
COLUMNS
    MARKER    'MARKER'                 'INTORG'
    x[1]      c1        248
    x[1]      OBJ       -270
    x[2]      c1        202
    x[2]      OBJ       -185
    x[3]      c1        836
    x[3]      OBJ       -820
    x[4]      c1        583
    x[4]      OBJ       -662
    x[5]      c1        105
    x[5]      OBJ       -178
    x[6]      c1        135
    x[6]      OBJ       -133
    x[7]      c1        878
    x[7]      OBJ       -890
    x[8]      c1        886
    x[8]      OBJ       -912
    x[9]      c1        251
    x[9]      OBJ       -275
    x[10]     c1        151
    x[10]     OBJ       -153
RHS
    rhs       c1        2138
RANGES
BOUNDS
 LO bounds    x[1]      0
 PL bounds    x[1]
 LO bounds    x[2]      0
 PL bounds    x[2]
 LO bounds    x[3]      0
 PL bounds    x[3]
 LO bounds    x[4]      0
 PL bounds    x[4]
 LO bounds    x[5]      0
 PL bounds    x[5]
 LO bounds    x[6]      0
 PL bounds    x[6]
 LO bounds    x[7]      0
 PL bounds    x[7]
 LO bounds    x[8]      0
 PL bounds    x[8]
 LO bounds    x[9]      0
 PL bounds    x[9]
 LO bounds    x[10]     0
 PL bounds    x[10]
ENDATA
